c preprocessed version of 1cka_graph, 57 vertices, 605 edges
p td 57 605
55 56
54 56
54 55
53 56
53 55
53 54
52 54
52 53
51 54
51 53
51 52
50 55
50 54
50 53
50 52
50 51
49 53
49 52
49 51
49 50
48 54
48 53
48 52
48 51
48 50
48 49
47 53
47 52
47 51
47 49
47 48
46 53
46 48
46 47
45 48
45 47
45 46
44 48
44 46
44 45
43 45
43 44
42 46
42 45
42 44
42 43
41 56
41 44
41 43
41 42
40 53
40 52
40 48
40 47
40 46
40 45
40 44
40 43
40 42
40 41
39 48
39 47
39 46
39 45
39 44
39 43
39 42
39 41
39 40
38 56
38 55
38 53
38 52
38 50
38 49
38 48
38 47
38 46
38 45
38 44
38 42
38 41
38 40
38 39
37 48
37 47
37 46
37 45
37 44
37 40
37 39
37 38
36 55
36 53
36 52
36 50
36 49
36 48
36 47
36 46
36 40
36 39
36 38
36 37
35 53
35 52
35 51
35 50
35 49
35 48
35 47
35 46
35 45
35 38
35 37
35 36
34 52
34 51
34 50
34 49
34 48
34 47
34 36
34 35
33 51
33 50
33 49
33 36
33 35
33 34
32 50
32 49
32 47
32 37
32 36
32 35
32 34
32 33
31 47
31 45
31 37
31 36
31 35
31 34
31 33
31 32
30 55
30 53
30 50
30 48
30 47
30 38
30 37
30 36
30 35
30 34
30 33
30 32
30 31
29 50
29 48
29 47
29 46
29 45
29 39
29 38
29 37
29 36
29 35
29 32
29 31
29 30
28 48
28 47
28 46
28 45
28 44
28 43
28 40
28 39
28 38
28 37
28 36
28 31
28 30
28 29
27 56
27 55
27 54
27 53
27 50
27 49
27 48
27 47
27 45
27 40
27 39
27 38
27 37
27 36
27 35
27 30
27 29
27 28
26 56
26 53
26 48
26 45
26 43
26 41
26 40
26 39
26 38
26 37
26 36
26 30
26 28
26 27
25 56
25 55
25 54
25 53
25 52
25 50
25 49
25 48
25 47
25 46
25 45
25 44
25 42
25 41
25 40
25 39
25 38
25 37
25 36
25 35
25 30
25 28
25 27
25 26
24 56
24 55
24 54
24 53
24 41
24 40
24 38
24 27
24 26
24 25
23 56
23 53
23 52
23 48
23 46
23 44
23 42
23 41
23 40
23 38
23 36
23 27
23 25
23 24
22 56
22 54
22 41
22 40
22 25
22 24
22 23
21 54
21 52
21 25
21 23
21 22
20 48
20 44
20 42
20 41
20 40
20 25
20 23
20 22
20 21
19 53
19 52
19 51
19 50
19 49
19 48
19 47
19 46
19 45
19 44
19 42
19 41
19 40
19 39
19 38
19 36
19 35
19 27
19 26
19 25
19 24
19 23
19 22
19 21
19 20
18 48
18 46
18 44
18 42
18 41
18 40
18 38
18 25
18 23
18 20
18 19
17 53
17 52
17 48
17 47
17 46
17 45
17 44
17 43
17 42
17 41
17 40
17 39
17 38
17 37
17 36
17 35
17 28
17 27
17 26
17 25
17 24
17 23
17 20
17 19
17 18
16 53
16 52
16 49
16 48
16 47
16 46
16 44
16 40
16 38
16 37
16 35
16 34
16 32
16 25
16 19
16 18
16 17
15 49
15 48
15 47
15 46
15 45
15 37
15 35
15 34
15 32
15 31
15 29
15 28
15 17
15 16
14 47
14 46
14 45
14 44
14 16
14 15
13 49
13 47
13 46
13 37
13 35
13 34
13 32
13 31
13 16
13 15
13 14
12 49
12 47
12 35
12 16
12 15
12 14
12 13
11 53
11 52
11 51
11 49
11 48
11 47
11 46
11 38
11 35
11 25
11 19
11 18
11 17
11 16
11 15
11 13
11 12
10 52
10 48
10 20
10 19
10 18
10 16
10 12
10 11
9 53
9 52
9 51
9 50
9 49
9 48
9 47
9 46
9 40
9 38
9 36
9 35
9 27
9 25
9 23
9 21
9 20
9 19
9 18
9 17
9 16
9 15
9 13
9 12
9 11
9 10
8 52
8 48
8 23
8 22
8 21
8 20
8 19
8 18
8 11
8 10
8 9
7 54
7 53
7 52
7 51
7 49
7 48
7 21
7 20
7 19
7 11
7 10
7 9
7 8
6 56
6 55
6 54
6 53
6 52
6 51
6 50
6 48
6 24
6 22
6 21
6 19
6 9
6 8
6 7
5 54
5 53
5 52
5 51
5 50
5 49
5 48
5 46
5 41
5 40
5 38
5 36
5 27
5 25
5 24
5 23
5 22
5 21
5 20
5 19
5 18
5 17
5 16
5 11
5 9
5 8
5 7
5 6
4 56
4 55
4 54
4 53
4 48
4 41
4 40
4 38
4 26
4 25
4 24
4 23
4 22
4 21
4 19
4 6
4 5
3 56
3 55
3 54
3 53
3 52
3 50
3 49
3 48
3 40
3 39
3 38
3 37
3 36
3 30
3 27
3 26
3 25
3 24
3 23
3 19
3 17
3 9
3 6
3 5
3 4
2 56
2 55
2 53
2 48
2 41
2 40
2 39
2 38
2 28
2 27
2 26
2 25
2 24
2 19
2 4
2 3
1 56
1 55
1 53
1 50
1 48
1 39
1 38
1 36
1 30
1 29
1 28
1 27
1 26
1 25
1 24
1 3
1 2
0 55
0 39
0 30
0 28
0 27
0 26
0 3
0 2
0 1
